param size := 9;

param nsubsets := 3;

set ROWSUBS[1] := 1 2 3;
set ROWSUBS[2] := 4 5 6;
set ROWSUBS[3] := 7 8 9;

set COLSUBS[1] := 1 2 3;
set COLSUBS[2] := 4 5 6;
set COLSUBS[3] := 7 8 9;

set KNOWN :=
  1 1 1
  8 1 4
  5 1 7
  2 2 2
  6 2 7
  3 3 3
  4 3 5
  1 3 6
  7 3 8
  2 3 9
  6 4 1
  4 4 4
  2 4 7
  2 5 3
  5 5 5
  1 5 7
  4 6 3
  6 6 6
  7 6 9
  4 7 1
  3 7 2
  1 7 4
  9 7 5
  7 7 7
  9 8 3
  8 8 8
  5 9 3
  2 9 6
  9 9 9;
